\ENCODING=ISO-8859-1
\Problem name: miqpex

Maximize
 obj: s_0 + s_1 + s_2 + s_3 + s_4 + s_5 + s_6
Subject To
 c1:   s_0 - s_1 <= 0
 c2:   - s_0 + s_1 <= 0
 c3:   s_0 - s_2 <= 0
 c4:   - s_0 + s_2 <= 0
 c5:   s_0 - s_3 <= 0
 c6:   - s_0 + s_3 <= 0
 c7:   s_0 - s_4 <= 0
 c8:   - s_0 + s_4 <= 0
 c9:   s_0 - s_5 <= 0
 c10:  - s_0 + s_5 <= 0
 c11:  s_0 - s_6 <= 0
 c12:  - s_0 + s_6 <= 0
 c13:  - s_0 + s_1 <= 0
 c14:  s_0 - s_1 <= 0
 c15:  s_1 - s_2 <= 0
 c16:  - s_1 + s_2 <= 0
 c17:  s_1 - s_3 <= 0
 c18:  - s_1 + s_3 <= 0
 c19:  s_1 - s_4 <= 0
 c20:  - s_1 + s_4 <= 0
 c21:  s_1 - s_5 <= 0
 c22:  - s_1 + s_5 <= 0
 c23:  s_1 - s_6 <= 0
 c24:  - s_1 + s_6 <= 0
 c25:  - s_0 + s_2 <= 0
 c26:  s_0 - s_2 <= 0
 c27:  - s_1 + s_2 <= 0
 c28:  s_1 - s_2 <= 0
 c29:  s_2 - s_3 <= 0
 c30:  - s_2 + s_3 <= 0
 c31:  s_2 - s_4 <= 0
 c32:  - s_2 + s_4 <= 0
 c33:  s_2 - s_5 <= 0
 c34:  - s_2 + s_5 <= 0
 c35:  s_2 - s_6 <= 0
 c36:  - s_2 + s_6 <= 0
 c37:  - s_0 + s_3 <= 0
 c38:  s_0 - s_3 <= 0
 c39:  - s_1 + s_3 <= 0
 c40:  s_1 - s_3 <= 0
 c41:  - s_2 + s_3 <= 0
 c42:  s_2 - s_3 <= 0
 c43:  s_3 - s_4 <= 0
 c44:  - s_3 + s_4 <= 0
 c45:  s_3 - s_5 <= 0
 c46:  - s_3 + s_5 <= 0
 c47:  s_3 - s_6 <= 0
 c48:  - s_3 + s_6 <= 0
 c49:  - s_0 + s_4 <= 0
 c50:  s_0 - s_4 <= 0
 c51:  - s_1 + s_4 <= 0
 c52:  s_1 - s_4 <= 0
 c53:  - s_2 + s_4 <= 0
 c54:  s_2 - s_4 <= 0
 c55:  - s_3 + s_4 <= 0
 c56:  s_3 - s_4 <= 0
 c57:  s_4 - s_5 <= 0
 c58:  - s_4 + s_5 <= 0
 c59:  s_4 - s_6 <= 0
 c60:  - s_4 + s_6 <= 0
 c61:  - s_0 + s_5 <= 0
 c62:  s_0 - s_5 <= 0
 c63:  - s_1 + s_5 <= 0
 c64:  s_1 - s_5 <= 0
 c65:  - s_2 + s_5 <= 0
 c66:  s_2 - s_5 <= 0
 c67:  - s_3 + s_5 <= 0
 c68:  s_3 - s_5 <= 0
 c69:  - s_4 + s_5 <= 0
 c70:  s_4 - s_5 <= 0
 c71:  s_5 - s_6 <= 0
 c72:  - s_5 + s_6 <= 0
 c73:  - s_0 + s_6 <= 0
 c74:  s_0 - s_6 <= 0
 c75:  - s_1 + s_6 <= 0
 c76:  s_1 - s_6 <= 0
 c77:  - s_2 + s_6 <= 0
 c78:  s_2 - s_6 <= 0
 c79:  - s_3 + s_6 <= 0
 c80:  s_3 - s_6 <= 0
 c81:  - s_4 + s_6 <= 0
 c82:  s_4 - s_6 <= 0
 c83:  - s_5 + s_6 <= 0
 c84:  s_5 - s_6 <= 0
 c85:  x_0 + 960 s_0 <= 10000
 c86:  y_0 + 720 s_0 <= 10000
 c87:  x_1 + 1280 s_1 <= 10000
 c88:  y_1 + 720 s_1 <= 10000
 c89:  x_2 + 528 s_2 <= 10000
 c90:  y_2 + 960 s_2 <= 10000
 c91:  x_3 + 528 s_3 <= 10000
 c92:  y_3 + 960 s_3 <= 10000
 c93:  x_4 + 3832 s_4 <= 10000
 c94:  y_4 + 2554 s_4 <= 10000
 c95:  x_5 + 1920 s_5 <= 10000
 c96:  y_5 + 1200 s_5 <= 10000
 c97:  x_6 + 2048 s_6 <= 10000
 c98:  y_6 + 1365 s_6 <= 10000
 c99:  x_0 + 960 s_0 - x_1 - 10000 S_0 <= 0
 c100: - x_0 + x_1 + 1280 s_1 - 10000 S_1 <= 0
 c101: y_0 + 720 s_0 - y_1 - 10000 S_2 <= 0
 c102: - y_0 + y_1 + 720 s_1 - 10000 S_3 <= 0
 c103: S_0 + S_1 + S_2 + S_3 <= 3
 c104: x_0 + 960 s_0 - x_2 - 10000 S_4 <= 0
 c105: - x_0 + x_2 + 528 s_2 - 10000 S_5 <= 0
 c106: y_0 + 720 s_0 - y_2 - 10000 S_6 <= 0
 c107: - y_0 + y_2 + 960 s_2 - 10000 S_7 <= 0
 c108: S_4 + S_5 + S_6 + S_7 <= 3
 c109: x_0 + 960 s_0 - x_3 - 10000 S_8 <= 0
 c110: - x_0 + x_3 + 528 s_3 - 10000 S_9 <= 0
 c111: y_0 + 720 s_0 - y_3 - 10000 S_10 <= 0
 c112: - y_0 + y_3 + 960 s_3 - 10000 S_11 <= 0
 c113: S_8 + S_9 + S_10 + S_11 <= 3
 c114: x_0 + 960 s_0 - x_4 - 10000 S_12 <= 0
 c115: - x_0 + x_4 + 3832 s_4 - 10000 S_13 <= 0
 c116: y_0 + 720 s_0 - y_4 - 10000 S_14 <= 0
 c117: - y_0 + y_4 + 2554 s_4 - 10000 S_15 <= 0
 c118: S_12 + S_13 + S_14 + S_15 <= 3
 c119: x_0 + 960 s_0 - x_5 - 10000 S_16 <= 0
 c120: - x_0 + x_5 + 1920 s_5 - 10000 S_17 <= 0
 c121: y_0 + 720 s_0 - y_5 - 10000 S_18 <= 0
 c122: - y_0 + y_5 + 1200 s_5 - 10000 S_19 <= 0
 c123: S_16 + S_17 + S_18 + S_19 <= 3
 c124: x_0 + 960 s_0 - x_6 - 10000 S_20 <= 0
 c125: - x_0 + x_6 + 2048 s_6 - 10000 S_21 <= 0
 c126: y_0 + 720 s_0 - y_6 - 10000 S_22 <= 0
 c127: - y_0 + y_6 + 1365 s_6 - 10000 S_23 <= 0
 c128: S_20 + S_21 + S_22 + S_23 <= 3
 c129: x_1 + 1280 s_1 - x_2 - 10000 S_24 <= 0
 c130: - x_1 + x_2 + 528 s_2 - 10000 S_25 <= 0
 c131: y_1 + 720 s_1 - y_2 - 10000 S_26 <= 0
 c132: - y_1 + y_2 + 960 s_2 - 10000 S_27 <= 0
 c133: S_24 + S_25 + S_26 + S_27 <= 3
 c134: x_1 + 1280 s_1 - x_3 - 10000 S_28 <= 0
 c135: - x_1 + x_3 + 528 s_3 - 10000 S_29 <= 0
 c136: y_1 + 720 s_1 - y_3 - 10000 S_30 <= 0
 c137: - y_1 + y_3 + 960 s_3 - 10000 S_31 <= 0
 c138: S_28 + S_29 + S_30 + S_31 <= 3
 c139: x_1 + 1280 s_1 - x_4 - 10000 S_32 <= 0
 c140: - x_1 + x_4 + 3832 s_4 - 10000 S_33 <= 0
 c141: y_1 + 720 s_1 - y_4 - 10000 S_34 <= 0
 c142: - y_1 + y_4 + 2554 s_4 - 10000 S_35 <= 0
 c143: S_32 + S_33 + S_34 + S_35 <= 3
 c144: x_1 + 1280 s_1 - x_5 - 10000 S_36 <= 0
 c145: - x_1 + x_5 + 1920 s_5 - 10000 S_37 <= 0
 c146: y_1 + 720 s_1 - y_5 - 10000 S_38 <= 0
 c147: - y_1 + y_5 + 1200 s_5 - 10000 S_39 <= 0
 c148: S_36 + S_37 + S_38 + S_39 <= 3
 c149: x_1 + 1280 s_1 - x_6 - 10000 S_40 <= 0
 c150: - x_1 + x_6 + 2048 s_6 - 10000 S_41 <= 0
 c151: y_1 + 720 s_1 - y_6 - 10000 S_42 <= 0
 c152: - y_1 + y_6 + 1365 s_6 - 10000 S_43 <= 0
 c153: S_40 + S_41 + S_42 + S_43 <= 3
 c154: x_2 + 528 s_2 - x_3 - 10000 S_44 <= 0
 c155: - x_2 + x_3 + 528 s_3 - 10000 S_45 <= 0
 c156: y_2 + 960 s_2 - y_3 - 10000 S_46 <= 0
 c157: - y_2 + y_3 + 960 s_3 - 10000 S_47 <= 0
 c158: S_44 + S_45 + S_46 + S_47 <= 3
 c159: x_2 + 528 s_2 - x_4 - 10000 S_48 <= 0
 c160: - x_2 + x_4 + 3832 s_4 - 10000 S_49 <= 0
 c161: y_2 + 960 s_2 - y_4 - 10000 S_50 <= 0
 c162: - y_2 + y_4 + 2554 s_4 - 10000 S_51 <= 0
 c163: S_48 + S_49 + S_50 + S_51 <= 3
 c164: x_2 + 528 s_2 - x_5 - 10000 S_52 <= 0
 c165: - x_2 + x_5 + 1920 s_5 - 10000 S_53 <= 0
 c166: y_2 + 960 s_2 - y_5 - 10000 S_54 <= 0
 c167: - y_2 + y_5 + 1200 s_5 - 10000 S_55 <= 0
 c168: S_52 + S_53 + S_54 + S_55 <= 3
 c169: x_2 + 528 s_2 - x_6 - 10000 S_56 <= 0
 c170: - x_2 + x_6 + 2048 s_6 - 10000 S_57 <= 0
 c171: y_2 + 960 s_2 - y_6 - 10000 S_58 <= 0
 c172: - y_2 + y_6 + 1365 s_6 - 10000 S_59 <= 0
 c173: S_56 + S_57 + S_58 + S_59 <= 3
 c174: x_3 + 528 s_3 - x_4 - 10000 S_60 <= 0
 c175: - x_3 + x_4 + 3832 s_4 - 10000 S_61 <= 0
 c176: y_3 + 960 s_3 - y_4 - 10000 S_62 <= 0
 c177: - y_3 + y_4 + 2554 s_4 - 10000 S_63 <= 0
 c178: S_60 + S_61 + S_62 + S_63 <= 3
 c179: x_3 + 528 s_3 - x_5 - 10000 S_64 <= 0
 c180: - x_3 + x_5 + 1920 s_5 - 10000 S_65 <= 0
 c181: y_3 + 960 s_3 - y_5 - 10000 S_66 <= 0
 c182: - y_3 + y_5 + 1200 s_5 - 10000 S_67 <= 0
 c183: S_64 + S_65 + S_66 + S_67 <= 3
 c184: x_3 + 528 s_3 - x_6 - 10000 S_68 <= 0
 c185: - x_3 + x_6 + 2048 s_6 - 10000 S_69 <= 0
 c186: y_3 + 960 s_3 - y_6 - 10000 S_70 <= 0
 c187: - y_3 + y_6 + 1365 s_6 - 10000 S_71 <= 0
 c188: S_68 + S_69 + S_70 + S_71 <= 3
 c189: x_4 + 3832 s_4 - x_5 - 10000 S_72 <= 0
 c190: - x_4 + x_5 + 1920 s_5 - 10000 S_73 <= 0
 c191: y_4 + 2554 s_4 - y_5 - 10000 S_74 <= 0
 c192: - y_4 + y_5 + 1200 s_5 - 10000 S_75 <= 0
 c193: S_72 + S_73 + S_74 + S_75 <= 3
 c194: x_4 + 3832 s_4 - x_6 - 10000 S_76 <= 0
 c195: - x_4 + x_6 + 2048 s_6 - 10000 S_77 <= 0
 c196: y_4 + 2554 s_4 - y_6 - 10000 S_78 <= 0
 c197: - y_4 + y_6 + 1365 s_6 - 10000 S_79 <= 0
 c198: S_76 + S_77 + S_78 + S_79 <= 3
 c199: x_5 + 1920 s_5 - x_6 - 10000 S_80 <= 0
 c200: - x_5 + x_6 + 2048 s_6 - 10000 S_81 <= 0
 c201: y_5 + 1200 s_5 - y_6 - 10000 S_82 <= 0
 c202: - y_5 + y_6 + 1365 s_6 - 10000 S_83 <= 0
 c203: S_80 + S_81 + S_82 + S_83 <= 3
Bounds
 0 <= S_0 <= 1
 0 <= S_1 <= 1
 0 <= S_2 <= 1
 0 <= S_3 <= 1
 0 <= S_4 <= 1
 0 <= S_5 <= 1
 0 <= S_6 <= 1
 0 <= S_7 <= 1
 0 <= S_8 <= 1
 0 <= S_9 <= 1
 0 <= S_10 <= 1
 0 <= S_11 <= 1
 0 <= S_12 <= 1
 0 <= S_13 <= 1
 0 <= S_14 <= 1
 0 <= S_15 <= 1
 0 <= S_16 <= 1
 0 <= S_17 <= 1
 0 <= S_18 <= 1
 0 <= S_19 <= 1
 0 <= S_20 <= 1
 0 <= S_21 <= 1
 0 <= S_22 <= 1
 0 <= S_23 <= 1
 0 <= S_24 <= 1
 0 <= S_25 <= 1
 0 <= S_26 <= 1
 0 <= S_27 <= 1
 0 <= S_28 <= 1
 0 <= S_29 <= 1
 0 <= S_30 <= 1
 0 <= S_31 <= 1
 0 <= S_32 <= 1
 0 <= S_33 <= 1
 0 <= S_34 <= 1
 0 <= S_35 <= 1
 0 <= S_36 <= 1
 0 <= S_37 <= 1
 0 <= S_38 <= 1
 0 <= S_39 <= 1
 0 <= S_40 <= 1
 0 <= S_41 <= 1
 0 <= S_42 <= 1
 0 <= S_43 <= 1
 0 <= S_44 <= 1
 0 <= S_45 <= 1
 0 <= S_46 <= 1
 0 <= S_47 <= 1
 0 <= S_48 <= 1
 0 <= S_49 <= 1
 0 <= S_50 <= 1
 0 <= S_51 <= 1
 0 <= S_52 <= 1
 0 <= S_53 <= 1
 0 <= S_54 <= 1
 0 <= S_55 <= 1
 0 <= S_56 <= 1
 0 <= S_57 <= 1
 0 <= S_58 <= 1
 0 <= S_59 <= 1
 0 <= S_60 <= 1
 0 <= S_61 <= 1
 0 <= S_62 <= 1
 0 <= S_63 <= 1
 0 <= S_64 <= 1
 0 <= S_65 <= 1
 0 <= S_66 <= 1
 0 <= S_67 <= 1
 0 <= S_68 <= 1
 0 <= S_69 <= 1
 0 <= S_70 <= 1
 0 <= S_71 <= 1
 0 <= S_72 <= 1
 0 <= S_73 <= 1
 0 <= S_74 <= 1
 0 <= S_75 <= 1
 0 <= S_76 <= 1
 0 <= S_77 <= 1
 0 <= S_78 <= 1
 0 <= S_79 <= 1
 0 <= S_80 <= 1
 0 <= S_81 <= 1
 0 <= S_82 <= 1
 0 <= S_83 <= 1
Binaries
 S_0  S_1  S_2  S_3  S_4  S_5  S_6  S_7  S_8  S_9  S_10  S_11  S_12  S_13 
 S_14  S_15  S_16  S_17  S_18  S_19  S_20  S_21  S_22  S_23  S_24  S_25  S_26 
 S_27  S_28  S_29  S_30  S_31  S_32  S_33  S_34  S_35  S_36  S_37  S_38  S_39 
 S_40  S_41  S_42  S_43  S_44  S_45  S_46  S_47  S_48  S_49  S_50  S_51  S_52 
 S_53  S_54  S_55  S_56  S_57  S_58  S_59  S_60  S_61  S_62  S_63  S_64  S_65 
 S_66  S_67  S_68  S_69  S_70  S_71  S_72  S_73  S_74  S_75  S_76  S_77  S_78 
 S_79  S_80  S_81  S_82  S_83 
End
